c This graph contains a clique of size 10
p edge 100 2444
e 1 0
e 2 0
e 2 1
e 3 1
e 4 0
e 4 2
e 4 3
e 5 2
e 6 0
e 6 1
e 6 2
e 6 3
e 7 3
e 7 4
e 7 5
e 8 0
e 8 2
e 9 0
e 9 4
e 9 5
e 9 6
e 9 8
e 10 0
e 10 1
e 10 2
e 10 3
e 10 4
e 10 6
e 11 4
e 11 5
e 11 6
e 11 8
e 12 0
e 12 2
e 12 3
e 12 5
e 12 8
e 12 9
e 12 11
e 13 0
e 13 4
e 13 8
e 13 10
e 13 11
e 13 12
e 14 0
e 14 1
e 14 2
e 14 4
e 14 6
e 14 7
e 14 8
e 14 9
e 14 11
e 14 12
e 15 0
e 15 1
e 15 2
e 15 5
e 15 6
e 15 11
e 15 12
e 15 13
e 16 0
e 16 1
e 16 2
e 16 3
e 16 5
e 16 6
e 16 7
e 16 8
e 16 9
e 16 12
e 17 2
e 17 3
e 17 5
e 17 7
e 17 9
e 17 11
e 17 12
e 17 16
e 18 2
e 18 3
e 18 4
e 18 5
e 18 6
e 18 12
e 18 14
e 18 15
e 18 17
e 19 0
e 19 1
e 19 3
e 19 5
e 19 7
e 19 11
e 19 12
e 19 15
e 19 17
e 20 0
e 20 4
e 20 5
e 20 6
e 20 7
e 20 8
e 20 10
e 20 13
e 20 15
e 20 16
e 20 17
e 20 18
e 20 19
e 21 2
e 21 3
e 21 4
e 21 6
e 21 7
e 21 9
e 21 10
e 21 15
e 21 16
e 21 17
e 21 18
e 21 20
e 22 2
e 22 4
e 22 5
e 22 6
e 22 8
e 22 9
e 22 11
e 22 12
e 22 14
e 22 15
e 22 18
e 22 19
e 22 21
e 23 2
e 23 4
e 23 6
e 23 7
e 23 10
e 23 12
e 23 13
e 23 15
e 23 18
e 23 19
e 23 21
e 24 3
e 24 4
e 24 7
e 24 10
e 24 12
e 24 13
e 24 14
e 24 15
e 24 16
e 24 22
e 25 1
e 25 5
e 25 9
e 25 12
e 25 13
e 25 14
e 25 17
e 25 19
e 25 20
e 25 24
e 26 0
e 26 2
e 26 3
e 26 4
e 26 5
e 26 7
e 26 8
e 26 10
e 26 11
e 26 13
e 26 14
e 26 15
e 26 18
e 26 19
e 26 21
e 26 22
e 26 23
e 27 2
e 27 5
e 27 7
e 27 10
e 27 12
e 27 13
e 27 14
e 27 21
e 27 23
e 27 25
e 27 26
e 28 2
e 28 3
e 28 4
e 28 8
e 28 10
e 28 13
e 28 15
e 28 16
e 28 17
e 28 21
e 28 23
e 28 24
e 28 25
e 29 1
e 29 6
e 29 7
e 29 8
e 29 10
e 29 12
e 29 14
e 29 17
e 29 18
e 29 19
e 29 20
e 29 22
e 29 23
e 29 24
e 29 26
e 29 27
e 30 0
e 30 1
e 30 2
e 30 3
e 30 5
e 30 6
e 30 8
e 30 9
e 30 10
e 30 13
e 30 14
e 30 15
e 30 16
e 30 17
e 30 20
e 30 22
e 30 25
e 30 28
e 30 29
e 31 0
e 31 1
e 31 2
e 31 5
e 31 10
e 31 11
e 31 14
e 31 20
e 31 21
e 31 23
e 31 25
e 31 28
e 31 29
e 32 0
e 32 1
e 32 2
e 32 3
e 32 4
e 32 5
e 32 7
e 32 8
e 32 10
e 32 11
e 32 13
e 32 15
e 32 16
e 32 17
e 32 18
e 32 20
e 32 22
e 32 26
e 32 27
e 32 29
e 32 30
e 32 31
e 33 1
e 33 2
e 33 5
e 33 6
e 33 7
e 33 8
e 33 9
e 33 13
e 33 14
e 33 16
e 33 20
e 33 22
e 33 28
e 33 29
e 33 32
e 34 0
e 34 2
e 34 3
e 34 7
e 34 8
e 34 9
e 34 14
e 34 15
e 34 16
e 34 18
e 34 19
e 34 20
e 34 21
e 34 23
e 34 24
e 34 26
e 34 27
e 34 33
e 35 0
e 35 1
e 35 4
e 35 5
e 35 6
e 35 7
e 35 11
e 35 15
e 35 17
e 35 20
e 35 23
e 35 24
e 35 25
e 35 26
e 35 30
e 35 31
e 36 0
e 36 2
e 36 3
e 36 11
e 36 16
e 36 18
e 36 21
e 36 29
e 36 32
e 36 34
e 36 35
e 37 1
e 37 9
e 37 10
e 37 13
e 37 14
e 37 16
e 37 17
e 37 18
e 37 19
e 37 20
e 37 22
e 37 24
e 37 25
e 37 27
e 37 28
e 37 30
e 37 32
e 37 33
e 37 34
e 38 0
e 38 2
e 38 3
e 38 4
e 38 6
e 38 7
e 38 8
e 38 9
e 38 10
e 38 13
e 38 14
e 38 15
e 38 17
e 38 19
e 38 22
e 38 23
e 38 24
e 38 25
e 38 26
e 38 27
e 38 29
e 38 30
e 38 31
e 38 33
e 38 34
e 39 0
e 39 5
e 39 8
e 39 12
e 39 14
e 39 15
e 39 17
e 39 19
e 39 28
e 39 30
e 39 32
e 39 33
e 39 37
e 40 0
e 40 4
e 40 5
e 40 8
e 40 9
e 40 11
e 40 12
e 40 13
e 40 14
e 40 20
e 40 22
e 40 28
e 40 30
e 40 31
e 40 32
e 40 34
e 40 36
e 40 37
e 40 39
e 41 0
e 41 5
e 41 6
e 41 9
e 41 15
e 41 16
e 41 17
e 41 18
e 41 20
e 41 25
e 41 26
e 41 28
e 41 30
e 41 34
e 41 37
e 41 38
e 42 2
e 42 6
e 42 13
e 42 14
e 42 19
e 42 21
e 42 27
e 42 29
e 42 35
e 42 38
e 42 39
e 42 41
e 43 0
e 43 1
e 43 3
e 43 10
e 43 14
e 43 15
e 43 17
e 43 19
e 43 20
e 43 22
e 43 24
e 43 28
e 43 29
e 43 30
e 43 31
e 43 33
e 43 35
e 43 38
e 43 40
e 43 41
e 44 0
e 44 1
e 44 2
e 44 4
e 44 5
e 44 7
e 44 9
e 44 16
e 44 21
e 44 22
e 44 26
e 44 28
e 44 29
e 44 30
e 44 31
e 44 33
e 44 34
e 44 38
e 44 42
e 45 2
e 45 3
e 45 5
e 45 7
e 45 8
e 45 10
e 45 11
e 45 13
e 45 18
e 45 19
e 45 20
e 45 21
e 45 25
e 45 26
e 45 28
e 45 35
e 45 36
e 45 39
e 45 43
e 45 44
e 46 0
e 46 1
e 46 2
e 46 4
e 46 5
e 46 6
e 46 8
e 46 9
e 46 13
e 46 15
e 46 17
e 46 20
e 46 21
e 46 22
e 46 24
e 46 26
e 46 27
e 46 28
e 46 30
e 46 31
e 46 33
e 46 34
e 46 35
e 46 37
e 46 39
e 46 40
e 46 41
e 46 43
e 46 45
e 47 0
e 47 1
e 47 3
e 47 4
e 47 5
e 47 7
e 47 8
e 47 14
e 47 15
e 47 16
e 47 18
e 47 19
e 47 20
e 47 21
e 47 25
e 47 26
e 47 28
e 47 30
e 47 31
e 47 32
e 47 35
e 47 36
e 47 37
e 47 39
e 47 40
e 47 41
e 47 45
e 48 0
e 48 1
e 48 2
e 48 3
e 48 4
e 48 7
e 48 8
e 48 9
e 48 10
e 48 12
e 48 13
e 48 16
e 48 18
e 48 19
e 48 20
e 48 26
e 48 33
e 48 34
e 48 35
e 48 37
e 48 38
e 48 39
e 48 40
e 48 42
e 48 43
e 48 46
e 49 2
e 49 4
e 49 5
e 49 6
e 49 7
e 49 10
e 49 12
e 49 15
e 49 16
e 49 17
e 49 18
e 49 22
e 49 25
e 49 26
e 49 27
e 49 29
e 49 30
e 49 32
e 49 33
e 49 34
e 49 35
e 49 36
e 49 39
e 49 40
e 49 41
e 49 42
e 49 45
e 49 46
e 50 2
e 50 3
e 50 8
e 50 9
e 50 13
e 50 15
e 50 17
e 50 19
e 50 20
e 50 23
e 50 24
e 50 26
e 50 29
e 50 30
e 50 31
e 50 36
e 50 40
e 50 41
e 50 42
e 50 45
e 50 47
e 50 49
e 51 2
e 51 3
e 51 6
e 51 8
e 51 12
e 51 14
e 51 19
e 51 20
e 51 22
e 51 25
e 51 26
e 51 27
e 51 28
e 51 30
e 51 31
e 51 35
e 51 36
e 51 38
e 51 40
e 51 41
e 51 42
e 51 43
e 51 46
e 51 47
e 51 48
e 51 49
e 52 1
e 52 8
e 52 11
e 52 12
e 52 13
e 52 16
e 52 17
e 52 21
e 52 22
e 52 23
e 52 27
e 52 28
e 52 32
e 52 39
e 52 40
e 52 41
e 52 44
e 52 46
e 52 49
e 53 0
e 53 2
e 53 3
e 53 7
e 53 9
e 53 10
e 53 12
e 53 14
e 53 15
e 53 16
e 53 17
e 53 18
e 53 20
e 53 22
e 53 23
e 53 24
e 53 25
e 53 26
e 53 27
e 53 30
e 53 33
e 53 35
e 53 37
e 53 40
e 53 42
e 53 44
e 53 49
e 53 50
e 54 1
e 54 2
e 54 3
e 54 4
e 54 5
e 54 6
e 54 10
e 54 12
e 54 14
e 54 17
e 54 21
e 54 22
e 54 23
e 54 25
e 54 29
e 54 33
e 54 35
e 54 37
e 54 38
e 54 39
e 54 40
e 54 41
e 54 43
e 54 47
e 54 50
e 54 52
e 55 1
e 55 5
e 55 7
e 55 11
e 55 13
e 55 14
e 55 15
e 55 16
e 55 17
e 55 18
e 55 19
e 55 20
e 55 21
e 55 24
e 55 26
e 55 27
e 55 28
e 55 29
e 55 30
e 55 36
e 55 39
e 55 40
e 55 43
e 55 46
e 55 49
e 55 50
e 55 51
e 56 1
e 56 2
e 56 3
e 56 4
e 56 5
e 56 6
e 56 7
e 56 9
e 56 10
e 56 11
e 56 14
e 56 16
e 56 19
e 56 21
e 56 22
e 56 24
e 56 27
e 56 28
e 56 29
e 56 30
e 56 33
e 56 34
e 56 35
e 56 37
e 56 39
e 56 40
e 56 43
e 56 45
e 56 46
e 56 48
e 56 52
e 56 53
e 56 54
e 56 55
e 57 10
e 57 11
e 57 12
e 57 19
e 57 20
e 57 23
e 57 24
e 57 32
e 57 33
e 57 34
e 57 35
e 57 36
e 57 37
e 57 39
e 57 40
e 57 41
e 57 42
e 57 44
e 57 45
e 57 46
e 57 48
e 57 49
e 57 50
e 57 51
e 57 53
e 57 54
e 57 55
e 58 3
e 58 5
e 58 6
e 58 7
e 58 9
e 58 10
e 58 11
e 58 12
e 58 13
e 58 14
e 58 15
e 58 18
e 58 20
e 58 21
e 58 23
e 58 24
e 58 25
e 58 26
e 58 28
e 58 29
e 58 32
e 58 33
e 58 34
e 58 35
e 58 36
e 58 38
e 58 39
e 58 40
e 58 42
e 58 43
e 58 44
e 58 48
e 58 49
e 58 52
e 59 0
e 59 2
e 59 6
e 59 11
e 59 16
e 59 18
e 59 22
e 59 23
e 59 25
e 59 26
e 59 27
e 59 28
e 59 30
e 59 36
e 59 39
e 59 41
e 59 42
e 59 43
e 59 45
e 59 46
e 59 48
e 59 54
e 59 55
e 59 56
e 59 57
e 60 1
e 60 2
e 60 3
e 60 4
e 60 6
e 60 8
e 60 9
e 60 10
e 60 14
e 60 17
e 60 18
e 60 20
e 60 22
e 60 24
e 60 25
e 60 26
e 60 27
e 60 28
e 60 29
e 60 30
e 60 33
e 60 34
e 60 36
e 60 37
e 60 38
e 60 40
e 60 42
e 60 45
e 60 47
e 60 51
e 60 52
e 60 53
e 60 56
e 60 57
e 60 58
e 61 0
e 61 1
e 61 3
e 61 9
e 61 11
e 61 15
e 61 16
e 61 19
e 61 20
e 61 21
e 61 22
e 61 24
e 61 25
e 61 26
e 61 28
e 61 29
e 61 30
e 61 32
e 61 37
e 61 40
e 61 41
e 61 43
e 61 44
e 61 48
e 61 49
e 61 51
e 61 53
e 61 56
e 61 57
e 61 60
e 62 0
e 62 1
e 62 2
e 62 3
e 62 5
e 62 6
e 62 7
e 62 9
e 62 10
e 62 12
e 62 14
e 62 16
e 62 17
e 62 22
e 62 23
e 62 25
e 62 28
e 62 30
e 62 31
e 62 32
e 62 34
e 62 35
e 62 36
e 62 38
e 62 39
e 62 40
e 62 43
e 62 45
e 62 46
e 62 49
e 62 50
e 62 52
e 62 53
e 62 54
e 62 55
e 62 56
e 62 57
e 63 0
e 63 1
e 63 2
e 63 6
e 63 8
e 63 9
e 63 11
e 63 12
e 63 13
e 63 14
e 63 15
e 63 16
e 63 18
e 63 20
e 63 22
e 63 23
e 63 25
e 63 26
e 63 27
e 63 28
e 63 29
e 63 30
e 63 32
e 63 33
e 63 34
e 63 35
e 63 39
e 63 42
e 63 43
e 63 44
e 63 45
e 63 46
e 63 47
e 63 48
e 63 50
e 63 52
e 63 53
e 63 54
e 63 55
e 63 62
e 64 0
e 64 1
e 64 3
e 64 4
e 64 5
e 64 7
e 64 8
e 64 9
e 64 11
e 64 12
e 64 13
e 64 17
e 64 18
e 64 19
e 64 20
e 64 21
e 64 23
e 64 24
e 64 25
e 64 30
e 64 31
e 64 32
e 64 33
e 64 35
e 64 36
e 64 37
e 64 40
e 64 41
e 64 46
e 64 47
e 64 52
e 64 53
e 64 54
e 64 55
e 64 57
e 64 59
e 64 61
e 64 63
e 65 0
e 65 1
e 65 2
e 65 4
e 65 6
e 65 8
e 65 9
e 65 11
e 65 13
e 65 15
e 65 18
e 65 20
e 65 21
e 65 31
e 65 32
e 65 35
e 65 37
e 65 38
e 65 39
e 65 40
e 65 42
e 65 45
e 65 46
e 65 49
e 65 50
e 65 53
e 65 54
e 65 57
e 65 58
e 65 62
e 66 1
e 66 6
e 66 8
e 66 11
e 66 12
e 66 13
e 66 21
e 66 24
e 66 27
e 66 30
e 66 31
e 66 34
e 66 36
e 66 37
e 66 38
e 66 40
e 66 43
e 66 46
e 66 47
e 66 48
e 66 50
e 66 51
e 66 52
e 66 54
e 66 56
e 66 62
e 66 64
e 67 0
e 67 3
e 67 4
e 67 5
e 67 7
e 67 13
e 67 20
e 67 23
e 67 25
e 67 26
e 67 27
e 67 32
e 67 34
e 67 37
e 67 39
e 67 42
e 67 44
e 67 48
e 67 49
e 67 50
e 67 52
e 67 53
e 67 55
e 67 56
e 67 58
e 67 59
e 67 60
e 67 61
e 67 65
e 67 66
e 68 0
e 68 1
e 68 2
e 68 5
e 68 7
e 68 8
e 68 12
e 68 13
e 68 14
e 68 16
e 68 17
e 68 19
e 68 21
e 68 27
e 68 28
e 68 34
e 68 35
e 68 37
e 68 43
e 68 45
e 68 48
e 68 49
e 68 50
e 68 51
e 68 55
e 68 57
e 68 61
e 69 0
e 69 3
e 69 4
e 69 6
e 69 11
e 69 12
e 69 13
e 69 14
e 69 15
e 69 18
e 69 20
e 69 22
e 69 23
e 69 24
e 69 25
e 69 27
e 69 28
e 69 31
e 69 32
e 69 33
e 69 34
e 69 36
e 69 41
e 69 42
e 69 44
e 69 45
e 69 47
e 69 48
e 69 49
e 69 52
e 69 53
e 69 55
e 69 56
e 69 57
e 69 58
e 69 59
e 69 61
e 69 63
e 70 0
e 70 2
e 70 7
e 70 9
e 70 11
e 70 13
e 70 14
e 70 15
e 70 19
e 70 22
e 70 23
e 70 24
e 70 25
e 70 27
e 70 28
e 70 29
e 70 31
e 70 33
e 70 34
e 70 36
e 70 40
e 70 41
e 70 44
e 70 45
e 70 46
e 70 50
e 70 51
e 70 53
e 70 56
e 70 57
e 70 58
e 70 61
e 70 62
e 70 64
e 70 65
e 70 66
e 70 67
e 70 68
e 71 0
e 71 1
e 71 2
e 71 3
e 71 4
e 71 5
e 71 6
e 71 7
e 71 8
e 71 9
e 71 10
e 71 11
e 71 14
e 71 15
e 71 16
e 71 17
e 71 19
e 71 23
e 71 24
e 71 26
e 71 27
e 71 28
e 71 31
e 71 34
e 71 35
e 71 37
e 71 38
e 71 39
e 71 41
e 71 45
e 71 49
e 71 50
e 71 53
e 71 54
e 71 58
e 71 61
e 71 62
e 71 63
e 71 65
e 71 66
e 71 67
e 71 68
e 71 69
e 72 4
e 72 5
e 72 6
e 72 8
e 72 9
e 72 13
e 72 14
e 72 18
e 72 20
e 72 21
e 72 28
e 72 29
e 72 32
e 72 33
e 72 35
e 72 36
e 72 37
e 72 38
e 72 42
e 72 43
e 72 48
e 72 49
e 72 50
e 72 55
e 72 58
e 72 59
e 72 62
e 72 66
e 72 67
e 72 68
e 73 0
e 73 1
e 73 3
e 73 7
e 73 9
e 73 10
e 73 11
e 73 19
e 73 22
e 73 23
e 73 28
e 73 33
e 73 34
e 73 36
e 73 38
e 73 39
e 73 41
e 73 44
e 73 46
e 73 48
e 73 49
e 73 50
e 73 51
e 73 52
e 73 53
e 73 54
e 73 55
e 73 56
e 73 58
e 73 59
e 73 60
e 73 63
e 73 64
e 73 69
e 73 72
e 74 2
e 74 5
e 74 6
e 74 8
e 74 9
e 74 10
e 74 12
e 74 14
e 74 17
e 74 21
e 74 23
e 74 26
e 74 30
e 74 32
e 74 33
e 74 34
e 74 38
e 74 42
e 74 43
e 74 46
e 74 50
e 74 51
e 74 54
e 74 58
e 74 60
e 74 62
e 74 63
e 74 64
e 74 65
e 74 68
e 74 71
e 74 72
e 74 73
e 75 0
e 75 4
e 75 5
e 75 10
e 75 11
e 75 13
e 75 15
e 75 20
e 75 21
e 75 22
e 75 23
e 75 24
e 75 28
e 75 30
e 75 32
e 75 35
e 75 36
e 75 37
e 75 38
e 75 40
e 75 41
e 75 44
e 75 45
e 75 48
e 75 51
e 75 55
e 75 56
e 75 57
e 75 59
e 75 62
e 75 66
e 75 68
e 75 69
e 75 70
e 75 71
e 75 72
e 75 73
e 76 5
e 76 6
e 76 8
e 76 11
e 76 15
e 76 19
e 76 20
e 76 21
e 76 22
e 76 23
e 76 24
e 76 26
e 76 30
e 76 32
e 76 34
e 76 36
e 76 37
e 76 39
e 76 40
e 76 41
e 76 43
e 76 46
e 76 47
e 76 48
e 76 49
e 76 52
e 76 53
e 76 57
e 76 58
e 76 61
e 76 63
e 76 64
e 76 66
e 76 67
e 76 68
e 76 71
e 76 72
e 76 73
e 76 74
e 77 0
e 77 2
e 77 3
e 77 5
e 77 6
e 77 7
e 77 9
e 77 12
e 77 14
e 77 15
e 77 16
e 77 17
e 77 22
e 77 23
e 77 26
e 77 28
e 77 31
e 77 33
e 77 35
e 77 36
e 77 39
e 77 40
e 77 43
e 77 44
e 77 45
e 77 48
e 77 49
e 77 52
e 77 57
e 77 58
e 77 61
e 77 62
e 77 64
e 77 65
e 77 66
e 77 68
e 77 71
e 77 72
e 77 73
e 77 74
e 77 76
e 78 0
e 78 3
e 78 4
e 78 5
e 78 8
e 78 9
e 78 13
e 78 17
e 78 18
e 78 20
e 78 24
e 78 26
e 78 28
e 78 30
e 78 31
e 78 37
e 78 39
e 78 41
e 78 43
e 78 46
e 78 47
e 78 49
e 78 50
e 78 51
e 78 52
e 78 53
e 78 54
e 78 56
e 78 57
e 78 58
e 78 59
e 78 60
e 78 64
e 78 69
e 78 70
e 78 72
e 78 73
e 78 74
e 78 75
e 78 77
e 79 5
e 79 6
e 79 9
e 79 11
e 79 12
e 79 13
e 79 15
e 79 17
e 79 19
e 79 21
e 79 23
e 79 24
e 79 27
e 79 29
e 79 30
e 79 32
e 79 33
e 79 34
e 79 36
e 79 37
e 79 39
e 79 41
e 79 47
e 79 52
e 79 53
e 79 55
e 79 56
e 79 57
e 79 58
e 79 59
e 79 65
e 79 67
e 79 69
e 79 71
e 79 73
e 79 74
e 79 75
e 79 77
e 79 78
e 80 0
e 80 2
e 80 5
e 80 8
e 80 14
e 80 15
e 80 16
e 80 17
e 80 20
e 80 21
e 80 22
e 80 23
e 80 25
e 80 26
e 80 28
e 80 29
e 80 30
e 80 31
e 80 32
e 80 33
e 80 37
e 80 38
e 80 39
e 80 40
e 80 41
e 80 45
e 80 46
e 80 47
e 80 50
e 80 52
e 80 53
e 80 57
e 80 58
e 80 67
e 80 68
e 80 71
e 80 72
e 80 73
e 80 76
e 80 78
e 81 1
e 81 3
e 81 5
e 81 7
e 81 9
e 81 10
e 81 13
e 81 14
e 81 15
e 81 19
e 81 21
e 81 22
e 81 25
e 81 27
e 81 28
e 81 29
e 81 30
e 81 31
e 81 32
e 81 34
e 81 36
e 81 38
e 81 39
e 81 41
e 81 44
e 81 45
e 81 47
e 81 48
e 81 50
e 81 52
e 81 55
e 81 56
e 81 58
e 81 59
e 81 63
e 81 64
e 81 66
e 81 69
e 81 73
e 81 74
e 81 78
e 82 2
e 82 3
e 82 5
e 82 10
e 82 11
e 82 12
e 82 17
e 82 18
e 82 22
e 82 23
e 82 25
e 82 31
e 82 32
e 82 39
e 82 42
e 82 47
e 82 48
e 82 49
e 82 50
e 82 52
e 82 54
e 82 55
e 82 57
e 82 59
e 82 61
e 82 63
e 82 64
e 82 65
e 82 66
e 82 70
e 82 72
e 82 73
e 82 76
e 82 77
e 82 78
e 82 79
e 82 81
e 83 0
e 83 8
e 83 10
e 83 13
e 83 18
e 83 20
e 83 22
e 83 26
e 83 28
e 83 29
e 83 31
e 83 34
e 83 36
e 83 39
e 83 40
e 83 43
e 83 44
e 83 45
e 83 47
e 83 49
e 83 50
e 83 51
e 83 53
e 83 54
e 83 55
e 83 56
e 83 57
e 83 59
e 83 66
e 83 68
e 83 69
e 83 70
e 83 73
e 83 78
e 83 81
e 84 1
e 84 2
e 84 8
e 84 10
e 84 12
e 84 14
e 84 15
e 84 16
e 84 17
e 84 19
e 84 20
e 84 23
e 84 26
e 84 27
e 84 29
e 84 30
e 84 31
e 84 33
e 84 35
e 84 36
e 84 39
e 84 40
e 84 41
e 84 42
e 84 44
e 84 45
e 84 47
e 84 49
e 84 52
e 84 54
e 84 56
e 84 57
e 84 58
e 84 63
e 84 64
e 84 67
e 84 68
e 84 70
e 84 73
e 84 74
e 84 75
e 84 78
e 84 79
e 84 80
e 84 82
e 84 83
e 85 0
e 85 1
e 85 2
e 85 7
e 85 8
e 85 9
e 85 11
e 85 13
e 85 14
e 85 15
e 85 20
e 85 23
e 85 24
e 85 25
e 85 26
e 85 28
e 85 29
e 85 33
e 85 35
e 85 37
e 85 40
e 85 42
e 85 43
e 85 46
e 85 49
e 85 55
e 85 56
e 85 57
e 85 59
e 85 62
e 85 68
e 85 70
e 85 71
e 85 72
e 85 75
e 85 76
e 85 77
e 85 78
e 85 80
e 86 0
e 86 1
e 86 4
e 86 5
e 86 6
e 86 8
e 86 11
e 86 13
e 86 14
e 86 19
e 86 21
e 86 22
e 86 24
e 86 25
e 86 30
e 86 33
e 86 36
e 86 37
e 86 42
e 86 44
e 86 47
e 86 48
e 86 50
e 86 57
e 86 59
e 86 61
e 86 64
e 86 65
e 86 68
e 86 70
e 86 71
e 86 72
e 86 73
e 86 74
e 86 79
e 86 80
e 86 81
e 86 82
e 87 4
e 87 8
e 87 9
e 87 11
e 87 13
e 87 16
e 87 17
e 87 18
e 87 19
e 87 20
e 87 24
e 87 25
e 87 27
e 87 34
e 87 35
e 87 36
e 87 37
e 87 38
e 87 40
e 87 41
e 87 42
e 87 43
e 87 44
e 87 45
e 87 47
e 87 48
e 87 49
e 87 51
e 87 52
e 87 54
e 87 55
e 87 57
e 87 58
e 87 60
e 87 61
e 87 63
e 87 64
e 87 66
e 87 67
e 87 69
e 87 70
e 87 72
e 87 78
e 87 79
e 87 80
e 87 83
e 87 86
e 88 1
e 88 3
e 88 4
e 88 5
e 88 7
e 88 8
e 88 12
e 88 13
e 88 14
e 88 15
e 88 16
e 88 18
e 88 19
e 88 21
e 88 22
e 88 24
e 88 26
e 88 28
e 88 29
e 88 30
e 88 31
e 88 32
e 88 33
e 88 34
e 88 36
e 88 37
e 88 38
e 88 41
e 88 42
e 88 43
e 88 44
e 88 45
e 88 46
e 88 48
e 88 56
e 88 63
e 88 65
e 88 69
e 88 70
e 88 71
e 88 72
e 88 75
e 88 76
e 88 80
e 88 82
e 88 84
e 89 1
e 89 4
e 89 11
e 89 15
e 89 17
e 89 20
e 89 22
e 89 23
e 89 24
e 89 26
e 89 27
e 89 29
e 89 31
e 89 33
e 89 40
e 89 41
e 89 42
e 89 43
e 89 44
e 89 45
e 89 46
e 89 48
e 89 49
e 89 51
e 89 53
e 89 57
e 89 63
e 89 66
e 89 68
e 89 70
e 89 71
e 89 72
e 89 75
e 89 80
e 89 82
e 89 85
e 89 86
e 90 1
e 90 2
e 90 3
e 90 6
e 90 8
e 90 10
e 90 11
e 90 12
e 90 18
e 90 19
e 90 20
e 90 22
e 90 23
e 90 24
e 90 26
e 90 29
e 90 31
e 90 32
e 90 33
e 90 34
e 90 35
e 90 36
e 90 37
e 90 38
e 90 40
e 90 41
e 90 42
e 90 44
e 90 45
e 90 46
e 90 47
e 90 49
e 90 50
e 90 53
e 90 54
e 90 55
e 90 56
e 90 57
e 90 60
e 90 62
e 90 65
e 90 68
e 90 71
e 90 74
e 90 75
e 90 78
e 90 79
e 90 80
e 90 82
e 90 85
e 91 1
e 91 3
e 91 4
e 91 8
e 91 9
e 91 10
e 91 11
e 91 12
e 91 13
e 91 14
e 91 15
e 91 22
e 91 23
e 91 25
e 91 26
e 91 27
e 91 29
e 91 30
e 91 32
e 91 33
e 91 35
e 91 37
e 91 39
e 91 41
e 91 42
e 91 43
e 91 45
e 91 46
e 91 47
e 91 48
e 91 49
e 91 51
e 91 53
e 91 54
e 91 56
e 91 59
e 91 61
e 91 64
e 91 66
e 91 67
e 91 69
e 91 70
e 91 72
e 91 76
e 91 77
e 91 78
e 91 79
e 91 80
e 91 81
e 91 83
e 91 84
e 91 88
e 91 90
e 92 0
e 92 1
e 92 3
e 92 4
e 92 6
e 92 9
e 92 10
e 92 11
e 92 14
e 92 17
e 92 19
e 92 22
e 92 24
e 92 28
e 92 31
e 92 34
e 92 36
e 92 42
e 92 43
e 92 44
e 92 46
e 92 47
e 92 51
e 92 52
e 92 53
e 92 54
e 92 55
e 92 58
e 92 59
e 92 60
e 92 61
e 92 64
e 92 71
e 92 72
e 92 76
e 92 78
e 92 79
e 92 81
e 92 84
e 92 86
e 92 87
e 92 89
e 92 90
e 92 91
e 93 2
e 93 5
e 93 6
e 93 7
e 93 11
e 93 16
e 93 17
e 93 18
e 93 20
e 93 25
e 93 29
e 93 31
e 93 32
e 93 34
e 93 35
e 93 36
e 93 37
e 93 40
e 93 41
e 93 42
e 93 46
e 93 47
e 93 48
e 93 50
e 93 51
e 93 52
e 93 53
e 93 54
e 93 56
e 93 58
e 93 59
e 93 61
e 93 62
e 93 63
e 93 64
e 93 65
e 93 66
e 93 67
e 93 70
e 93 73
e 93 76
e 93 77
e 93 78
e 93 79
e 93 87
e 93 89
e 93 92
e 94 3
e 94 6
e 94 8
e 94 9
e 94 13
e 94 17
e 94 18
e 94 19
e 94 20
e 94 22
e 94 23
e 94 28
e 94 30
e 94 34
e 94 37
e 94 38
e 94 39
e 94 43
e 94 44
e 94 50
e 94 51
e 94 53
e 94 54
e 94 55
e 94 57
e 94 58
e 94 63
e 94 64
e 94 65
e 94 67
e 94 70
e 94 71
e 94 72
e 94 73
e 94 74
e 94 77
e 94 78
e 94 81
e 94 86
e 94 89
e 95 1
e 95 3
e 95 6
e 95 7
e 95 10
e 95 11
e 95 12
e 95 13
e 95 14
e 95 15
e 95 17
e 95 24
e 95 25
e 95 26
e 95 27
e 95 28
e 95 29
e 95 32
e 95 34
e 95 35
e 95 36
e 95 37
e 95 38
e 95 39
e 95 42
e 95 43
e 95 45
e 95 49
e 95 50
e 95 52
e 95 56
e 95 59
e 95 62
e 95 63
e 95 64
e 95 65
e 95 67
e 95 68
e 95 70
e 95 71
e 95 72
e 95 74
e 95 75
e 95 76
e 95 80
e 95 81
e 95 82
e 95 83
e 95 84
e 95 86
e 95 90
e 95 92
e 95 93
e 96 0
e 96 1
e 96 5
e 96 6
e 96 7
e 96 13
e 96 15
e 96 17
e 96 19
e 96 22
e 96 23
e 96 24
e 96 26
e 96 28
e 96 32
e 96 33
e 96 34
e 96 36
e 96 38
e 96 40
e 96 43
e 96 44
e 96 49
e 96 55
e 96 57
e 96 59
e 96 61
e 96 64
e 96 65
e 96 69
e 96 71
e 96 74
e 96 76
e 96 79
e 96 80
e 96 83
e 96 84
e 96 86
e 96 87
e 96 89
e 96 90
e 96 92
e 96 93
e 97 0
e 97 5
e 97 8
e 97 9
e 97 11
e 97 12
e 97 13
e 97 15
e 97 19
e 97 26
e 97 27
e 97 29
e 97 30
e 97 31
e 97 36
e 97 38
e 97 39
e 97 46
e 97 50
e 97 51
e 97 57
e 97 60
e 97 61
e 97 63
e 97 67
e 97 68
e 97 71
e 97 73
e 97 74
e 97 76
e 97 77
e 97 78
e 97 80
e 97 81
e 97 84
e 97 89
e 97 90
e 97 91
e 97 94
e 97 96
e 98 4
e 98 5
e 98 6
e 98 8
e 98 12
e 98 16
e 98 20
e 98 21
e 98 26
e 98 30
e 98 34
e 98 39
e 98 41
e 98 43
e 98 45
e 98 47
e 98 48
e 98 49
e 98 50
e 98 51
e 98 54
e 98 55
e 98 56
e 98 58
e 98 59
e 98 61
e 98 63
e 98 65
e 98 68
e 98 73
e 98 78
e 98 79
e 98 81
e 98 84
e 98 86
e 98 87
e 98 88
e 98 89
e 98 92
e 98 93
e 98 95
e 99 4
e 99 6
e 99 7
e 99 8
e 99 9
e 99 12
e 99 18
e 99 20
e 99 22
e 99 23
e 99 26
e 99 29
e 99 33
e 99 35
e 99 39
e 99 41
e 99 46
e 99 47
e 99 50
e 99 51
e 99 52
e 99 54
e 99 55
e 99 56
e 99 59
e 99 61
e 99 62
e 99 64
e 99 69
e 99 72
e 99 74
e 99 75
e 99 76
e 99 81
e 99 83
e 99 86
e 99 88
e 99 90
e 99 91
e 99 93
